
******************************************************************************
This program contains Ipopt, a library for large-scale nonlinear optimization.
 Ipopt is released as open source code under the Eclipse Public License (EPL).
         For more information visit http://projects.coin-or.org/Ipopt
******************************************************************************

This is Ipopt version 3.12.6, running with linear solver ma57.

Number of nonzeros in equality constraint Jacobian...:        0
Number of nonzeros in inequality constraint Jacobian.:        0
Number of nonzeros in Lagrangian Hessian.............:   500500

Total number of variables............................:     1000
                     variables with only lower bounds:     1000
                variables with lower and upper bounds:        0
                     variables with only upper bounds:        0
Total number of equality constraints.................:        0
Total number of inequality constraints...............:        0
        inequality constraints with only lower bounds:        0
   inequality constraints with lower and upper bounds:        0
        inequality constraints with only upper bounds:        0

iter    objective    inf_pr   inf_du lg(mu)  ||d||  lg(rg) alpha_du alpha_pr  ls
   0  2.6708333e+14 0.00e+00 9.90e+01  -1.0 0.00e+00    -  0.00e+00 0.00e+00   0
   1  1.6174386e+11 0.00e+00 9.90e-01  -1.0 1.00e+03    -  9.92e-01 9.90e-01f  1
   2  2.4912596e+10 0.00e+00 1.00e-06  -1.0 3.18e+01    -  1.00e+00 1.00e+00f  1
   3  6.5672637e+09 0.00e+00 1.00e-06  -1.0 6.94e+01    -  1.00e+00 1.00e+00f  1
   4  1.9959585e+09 0.00e+00 1.00e-06  -1.0 9.37e+01    -  1.00e+00 1.00e+00f  1
   5  5.6824145e+08 0.00e+00 2.00e-07  -1.7 4.92e+01    -  1.00e+00 1.00e+00f  1
   6  1.5166837e+08 0.00e+00 2.83e-08  -2.5 5.34e+01    -  1.00e+00 1.00e+00f  1
   7  4.7991381e+07 0.00e+00 2.83e-08  -2.5 1.92e+01    -  1.00e+00 1.00e+00f  1
   8  1.2505116e+07 0.00e+00 1.50e-09  -3.8 2.47e+01    -  1.00e+00 1.00e+00f  1
   9  3.6491546e+06 0.00e+00 1.50e-09  -3.8 1.11e+01    -  1.00e+00 1.00e+00f  1
iter    objective    inf_pr   inf_du lg(mu)  ||d||  lg(rg) alpha_du alpha_pr  ls
  10  9.1843555e+05 0.00e+00 1.84e-11  -5.7 8.11e+00    -  1.00e+00 1.00e+00f  1
  11  2.3579632e+05 0.00e+00 1.84e-11  -5.7 4.00e+00    -  1.00e+00 1.00e+00f  1
  12  6.5264018e+04 0.00e+00 1.84e-11  -5.7 1.89e+00    -  1.00e+00 1.00e+00f  1
  13  1.6321834e+04 0.00e+00 2.51e-14  -8.6 1.16e+00    -  1.00e+00 1.00e+00f  1
  14  4.0875350e+03 0.00e+00 2.51e-14  -8.6 5.79e-01    -  1.00e+00 1.00e+00f  1
  15  1.0295905e+03 0.00e+00 2.51e-14  -8.6 2.85e-01    -  1.00e+00 1.00e+00f  1
  16  2.6545486e+02 0.00e+00 2.51e-14  -8.6 1.33e-01    -  1.00e+00 1.00e+00f  1
  17  7.4746932e+01 0.00e+00 2.51e-14  -8.6 4.02e-02    -  1.00e+00 1.00e+00f  1
  18  1.8484153e+01 0.00e+00 5.44e-06 -12.2 5.95e-02    -  7.57e-01 1.00e+00f  1
  19  5.3530208e+00 0.00e+00 6.86e-18 -12.2 4.32e-01    -  1.00e+00 1.00e+00f  1
iter    objective    inf_pr   inf_du lg(mu)  ||d||  lg(rg) alpha_du alpha_pr  ls
  20  9.8141272e-01 0.00e+00 6.82e-18 -12.2 1.73e-01    -  1.00e+00 1.00e+00f  1
  21 -1.2000939e-01 0.00e+00 6.83e-18 -12.2 8.03e-02    -  1.00e+00 1.00e+00f  1
  22 -3.9932983e-01 0.00e+00 6.82e-18 -12.2 3.73e-02    -  1.00e+00 1.00e+00f  1
  23 -4.7086601e-01 0.00e+00 6.81e-18 -12.2 1.70e-02    -  1.00e+00 1.00e+00f  1

Number of Iterations....: 23

                                   (scaled)                 (unscaled)
Objective...............:  -3.5288519930755545e-08   -4.7086601340956385e-01
Dual infeasibility......:   6.8144859397792530e-18    9.0927866461830432e-11
Constraint violation....:   0.0000000000000000e+00    0.0000000000000000e+00
Complementarity.........:   5.4112499402559973e-12    7.2204039498704155e-05
Overall NLP error.......:   5.4112499402559973e-12    7.2204039498704155e-05


Number of objective function evaluations             = 24
Number of objective gradient evaluations             = 24
Number of equality constraint evaluations            = 0
Number of inequality constraint evaluations          = 0
Number of equality constraint Jacobian evaluations   = 0
Number of inequality constraint Jacobian evaluations = 0
Number of Lagrangian Hessian evaluations             = 23
Total CPU secs in IPOPT (w/o function evaluations)   =      6.213
Total CPU secs in NLP function evaluations           =     91.503

EXIT: Optimal Solution Found.

 ** SUBROUTINE CUTEST_csetup: Warning. The problem has no general constraints. 
 ** Other tools may be preferable ** 

************************ CUTEst statistics ************************


 Package used            :  IPOPT
 Problem                 :  HARKERP2  
 # variables             =            1000
 # constraints           =               0
 # objective functions   =        0.4900000E+02
 # objective gradients   =        0.2500000E+02
 # objective Hessians    =        0.2400000E+02
 # Hessian-vector prdct  =        0.0000000E+00
 # constraints functions =        0.0000000E+00
 # constraints gradients =        0.0000000E+00
 # constraints Hessians  =        0.0000000E+00
 Exit code               =               0
 Final f                 =  -0.4708660E+00
 Set up time             =            0.43 seconds
 Solve time              =           98.98 seconds


******************************************************************

System Time =      97.7340011597 s.
